p cnf 119 19
1 -101 0
2 11 -102 0
3 12 21 -103 0
4 13 22 31 -104 0
5 14 23 32 41 -105 0
6 15 24 33 42 51 -106 0
7 16 25 34 43 52 61 -107 0
8 17 26 35 44 53 62 71 -108 0
9 18 27 36 45 54 63 72 81 -109 0
10 19 28 37 46 55 64 73 82 91 -110 0
20 29 38 47 56 65 74 83 92 -111 0
30 39 48 57 66 75 84 93 -112 0
40 49 58 67 76 85 94 -113 0
50 59 68 77 86 95 -114 0
60 69 78 87 96 -115 0
70 79 88 97 -116 0
80 89 98 -117 0
90 99 -118 0
100 -119 0
